p tw 156 512
0 1
0 2
0 3
0 4
0 10
1 2
1 3
1 4
1 31
1 59
1 122
1 127
1 143
1 144
2 3
2 4
2 79
3 4
3 61
3 91
3 100
3 123
3 128
4 58
4 80
4 115
4 142
4 152
4 153
5 6
5 90
6 83
6 84
6 85
6 86
6 87
6 88
7 8
7 9
7 97
7 131
8 9
8 15
8 16
8 17
8 18
8 19
8 20
9 130
10 78
10 127
10 128
11 12
11 16
11 53
11 67
12 56
13 14
13 115
14 79
14 143
14 153
15 16
15 17
15 18
15 19
15 20
15 52
15 64
15 125
16 17
16 18
16 19
16 20
16 53
16 67
17 18
17 19
17 20
17 95
17 96
17 97
17 98
17 99
18 19
18 20
18 51
18 130
18 131
18 132
19 20
19 109
19 121
19 148
20 57
20 120
20 126
20 147
21 22
21 23
21 119
22 23
22 29
22 30
23 71
23 72
23 73
23 74
23 75
23 76
24 25
24 26
24 113
24 150
25 26
25 112
25 116
25 135
25 136
25 137
25 138
26 94
27 28
27 42
27 43
27 44
27 45
27 46
28 118
29 30
29 35
29 74
29 86
29 119
30 36
30 75
30 81
30 93
30 105
31 32
31 33
31 59
31 122
31 127
31 143
31 144
32 33
32 60
32 108
33 62
34 35
34 36
34 37
34 38
34 39
34 72
34 133
34 149
35 36
35 37
35 38
35 39
35 74
35 86
35 119
36 37
36 38
36 39
36 75
36 81
36 93
36 105
37 38
37 39
37 68
38 39
38 71
38 83
38 145
38 146
39 104
40 41
40 95
40 136
40 154
41 111
42 43
42 44
42 45
42 46
42 116
42 117
42 118
43 44
43 45
43 46
43 70
44 45
44 46
44 129
44 138
44 139
44 155
45 46
45 94
45 135
45 150
45 151
46 69
46 103
46 112
46 113
46 114
47 48
47 84
48 76
48 87
48 103
49 50
49 98
49 132
49 134
49 147
49 148
50 99
51 52
51 53
51 54
51 55
51 56
51 57
51 130
51 131
51 132
52 53
52 54
52 55
52 56
52 57
52 64
52 125
53 54
53 55
53 56
53 57
53 67
54 55
54 56
54 57
54 63
55 56
55 57
55 82
56 57
57 120
57 126
57 147
58 59
58 60
58 61
58 62
58 80
58 115
58 142
58 152
58 153
59 60
59 61
59 62
59 122
59 127
59 143
59 144
60 61
60 62
60 108
61 62
61 91
61 100
61 123
61 128
63 64
64 125
65 66
65 105
65 144
65 152
66 142
67 82
67 108
67 122
67 123
67 124
68 93
69 70
69 103
69 112
69 113
69 114
71 72
71 73
71 74
71 75
71 76
71 83
71 145
71 146
72 73
72 74
72 75
72 76
72 133
72 149
73 74
73 75
73 76
73 85
73 89
73 90
74 75
74 76
74 86
74 119
75 76
75 81
75 93
75 105
76 87
76 103
77 78
77 100
78 127
78 128
79 143
79 153
80 81
80 115
80 142
80 152
80 153
81 93
81 105
82 108
82 122
82 123
82 124
83 84
83 85
83 86
83 87
83 88
83 145
83 146
84 85
84 86
84 87
84 88
85 86
85 87
85 88
85 89
85 90
86 87
86 88
86 119
87 88
87 103
88 114
89 90
89 145
91 92
91 100
91 123
91 128
92 124
93 105
94 135
94 150
94 151
95 96
95 97
95 98
95 99
95 136
95 154
96 97
96 98
96 99
96 106
97 98
97 99
97 131
98 99
98 132
98 134
98 147
98 148
100 123
100 128
101 102
101 106
101 111
101 141
101 151
101 154
101 155
102 107
103 112
103 113
103 114
104 133
105 144
105 152
106 111
106 141
106 151
106 154
106 155
107 137
107 140
107 141
108 122
108 123
108 124
109 110
109 121
109 148
110 134
111 141
111 151
111 154
111 155
112 113
112 114
112 116
112 135
112 136
112 137
112 138
113 114
113 150
115 142
115 152
115 153
116 117
116 118
116 135
116 136
116 137
116 138
117 118
117 129
120 121
120 126
120 147
121 148
122 123
122 124
122 127
122 143
122 144
123 124
123 128
125 126
126 147
127 128
127 143
127 144
129 138
129 139
129 155
130 131
130 132
131 132
132 134
132 147
132 148
133 149
134 147
134 148
135 136
135 137
135 138
135 150
135 151
136 137
136 138
136 154
137 138
137 140
137 141
138 139
138 155
139 140
139 155
140 141
141 151
141 154
141 155
142 152
142 153
143 144
143 153
144 152
145 146
146 149
147 148
150 151
151 154
151 155
152 153
154 155
